Welcome to the CBC MILP Solver 
Version: 2.10.3 
Build Date: Dec 15 2019 

command line - /home/cdmonsalvea/AI_OR_Workflow/.venv/lib/python3.10/site-packages/pulp/solverdir/cbc/linux/64/cbc /tmp/36edb2c39561498eb700833f213c3f46-pulp.mps -sec 3600 -timeMode elapsed -branch -printingOptions all -solution /tmp/36edb2c39561498eb700833f213c3f46-pulp.sol (default strategy 1)
At line 2 NAME          MODEL
At line 3 ROWS
At line 73 COLUMNS
At line 3642 RHS
At line 3711 BOUNDS
At line 3746 ENDATA
Problem MODEL has 68 rows, 1190 columns and 2346 elements
Coin0008I MODEL read with 0 errors
seconds was changed from 1e+100 to 3600
Option for timeMode changed from cpu to elapsed
Continuous objective value is 1.08093e+07 - 0.00 seconds
Cgl0004I processed model has 68 rows, 1190 columns (34 integer (34 of which binary)) and 2346 elements
Cbc0038I Initial state - 34 integers unsatisfied sum - 2.80078
Cbc0038I Pass   1: suminf.    0.44925 (1) obj. 1.71759e+08 iterations 33
Cbc0038I Solution found of 1.7569e+08
Cbc0038I Relaxing continuous gives 1.61098e+08
Cbc0038I Before mini branch and bound, 0 integers at bound fixed and 1089 continuous
Cbc0038I Full problem 68 rows 1190 columns, reduced to 66 rows 97 columns
Cbc0038I Mini branch and bound improved solution from 1.61098e+08 to 9.50888e+07 (0.03 seconds)
Cbc0038I Freeing continuous variables gives a solution of 6.7191e+07
Cbc0038I Round again with cutoff of 6.15528e+07
Cbc0038I Pass   2: suminf.    1.21035 (20) obj. 6.15528e+07 iterations 41
Cbc0038I Pass   3: suminf.    2.07377 (16) obj. 6.15528e+07 iterations 42
Cbc0038I Pass   4: suminf.    2.07377 (16) obj. 6.15528e+07 iterations 0
Cbc0038I Pass   5: suminf.    1.69415 (16) obj. 6.15528e+07 iterations 22
Cbc0038I Pass   6: suminf.    1.69415 (16) obj. 6.15528e+07 iterations 0
Cbc0038I Pass   7: suminf.    1.67629 (16) obj. 6.15528e+07 iterations 5
Cbc0038I Pass   8: suminf.    1.67629 (16) obj. 6.15528e+07 iterations 0
Cbc0038I Pass   9: suminf.    1.69415 (16) obj. 6.15528e+07 iterations 6
Cbc0038I Pass  10: suminf.    1.43594 (16) obj. 6.15528e+07 iterations 23
Cbc0038I Pass  11: suminf.    1.20144 (15) obj. 6.15528e+07 iterations 1
Cbc0038I Pass  12: suminf.    0.74021 (13) obj. 6.15528e+07 iterations 10
Cbc0038I Pass  13: suminf.    1.69415 (16) obj. 6.15528e+07 iterations 12
Cbc0038I Pass  14: suminf.    1.69415 (16) obj. 6.15528e+07 iterations 0
Cbc0038I Pass  15: suminf.    1.67629 (16) obj. 6.15528e+07 iterations 5
Cbc0038I Pass  16: suminf.    1.67629 (16) obj. 6.15528e+07 iterations 0
Cbc0038I Pass  17: suminf.    1.69415 (16) obj. 6.15528e+07 iterations 8
Cbc0038I Pass  18: suminf.    2.02885 (16) obj. 6.15528e+07 iterations 45
Cbc0038I Pass  19: suminf.    1.20144 (15) obj. 6.15528e+07 iterations 1
Cbc0038I Pass  20: suminf.    1.08926 (15) obj. 6.15528e+07 iterations 2
Cbc0038I Pass  21: suminf.    1.69415 (16) obj. 6.15528e+07 iterations 15
Cbc0038I Pass  22: suminf.    1.69415 (16) obj. 6.15528e+07 iterations 2
Cbc0038I Pass  23: suminf.    1.67629 (16) obj. 6.15528e+07 iterations 5
Cbc0038I Pass  24: suminf.    1.67629 (16) obj. 6.15528e+07 iterations 0
Cbc0038I Pass  25: suminf.    1.69415 (16) obj. 6.15528e+07 iterations 6
Cbc0038I Pass  26: suminf.    2.11072 (16) obj. 6.15528e+07 iterations 31
Cbc0038I Pass  27: suminf.    1.33500 (16) obj. 6.15528e+07 iterations 7
Cbc0038I Pass  28: suminf.    1.69415 (16) obj. 6.15528e+07 iterations 18
Cbc0038I Pass  29: suminf.    1.69415 (16) obj. 6.15528e+07 iterations 2
Cbc0038I Pass  30: suminf.    1.67629 (16) obj. 6.15528e+07 iterations 12
Cbc0038I Pass  31: suminf.    1.67629 (16) obj. 6.15528e+07 iterations 0
Cbc0038I No solution found this major pass
Cbc0038I Before mini branch and bound, 0 integers at bound fixed and 1104 continuous
Cbc0038I Full problem 68 rows 1190 columns, reduced to 36 rows 52 columns
Cbc0038I Mini branch and bound did not improve solution (0.04 seconds)
Cbc0038I After 0.04 seconds - Feasibility pump exiting with objective of 6.7191e+07 - took 0.04 seconds
Cbc0012I Integer solution of 67190979 found by feasibility pump after 0 iterations and 0 nodes (0.04 seconds)
Cbc0012I Integer solution of 66541169 found by DiveCoefficient after 1239 iterations and 0 nodes (0.45 seconds)
Cbc0031I 53 added rows had average density of 93.490566
Cbc0013I At root node, 53 cuts changed objective from 10809283 to 50829088 in 100 passes
Cbc0014I Cut generator 0 (Probing) - 3 row cuts average 34.0 elements, 0 column cuts (0 active)  in 0.067 seconds - new frequency is -100
Cbc0014I Cut generator 1 (Gomory) - 305 row cuts average 156.0 elements, 0 column cuts (0 active)  in 0.039 seconds - new frequency is 1
Cbc0014I Cut generator 2 (Knapsack) - 0 row cuts average 0.0 elements, 0 column cuts (0 active)  in 0.008 seconds - new frequency is -100
Cbc0014I Cut generator 3 (Clique) - 0 row cuts average 0.0 elements, 0 column cuts (0 active)  in 0.001 seconds - new frequency is -100
Cbc0014I Cut generator 4 (MixedIntegerRounding2) - 1 row cuts average 136.0 elements, 0 column cuts (0 active)  in 0.029 seconds - new frequency is -100
Cbc0014I Cut generator 5 (FlowCover) - 0 row cuts average 0.0 elements, 0 column cuts (0 active)  in 0.100 seconds - new frequency is -100
Cbc0014I Cut generator 6 (TwoMirCuts) - 72 row cuts average 85.9 elements, 0 column cuts (0 active)  in 0.008 seconds - new frequency is 1
Cbc0010I After 0 nodes, 1 on tree, 66541169 best solution, best possible 50829088 (0.46 seconds)
Cbc0012I Integer solution of 65931106 found by DiveCoefficient after 1315 iterations and 2 nodes (0.50 seconds)
Cbc0012I Integer solution of 65746924 found by DiveCoefficient after 1387 iterations and 4 nodes (0.56 seconds)
Cbc0012I Integer solution of 65683461 found by DiveCoefficient after 1395 iterations and 5 nodes (0.58 seconds)
Cbc0012I Integer solution of 63744744 found by DiveCoefficient after 1426 iterations and 6 nodes (0.61 seconds)
Cbc0012I Integer solution of 62941312 found by DiveCoefficient after 1484 iterations and 9 nodes (0.63 seconds)
Cbc0012I Integer solution of 61497641 found by DiveCoefficient after 1494 iterations and 10 nodes (0.63 seconds)
Cbc0012I Integer solution of 59529201 found by DiveCoefficient after 1498 iterations and 12 nodes (0.64 seconds)
Cbc0012I Integer solution of 59521690 found by DiveCoefficient after 1563 iterations and 20 nodes (0.67 seconds)
Cbc0012I Integer solution of 58422409 found by rounding after 1576 iterations and 22 nodes (0.68 seconds)
Cbc0012I Integer solution of 55816164 found by rounding after 1580 iterations and 24 nodes (0.68 seconds)
Cbc0038I Full problem 68 rows 1190 columns, reduced to 56 rows 763 columns - 1 fixed gives 56, 762 - still too large
Cbc0038I Full problem 68 rows 1190 columns, reduced to 56 rows 762 columns - too large
Cbc0001I Search completed - best objective 55816163.66384161, took 2122 iterations and 50 nodes (0.78 seconds)
Cbc0032I Strong branching done 464 times (4346 iterations), fathomed 7 nodes and fixed 17 variables
Cbc0035I Maximum depth 18, 1 variables fixed on reduced cost
Cuts at root node changed objective from 1.08093e+07 to 5.08291e+07
Probing was tried 100 times and created 3 cuts of which 0 were active after adding rounds of cuts (0.067 seconds)
Gomory was tried 153 times and created 305 cuts of which 0 were active after adding rounds of cuts (0.046 seconds)
Knapsack was tried 100 times and created 0 cuts of which 0 were active after adding rounds of cuts (0.008 seconds)
Clique was tried 100 times and created 0 cuts of which 0 were active after adding rounds of cuts (0.001 seconds)
MixedIntegerRounding2 was tried 100 times and created 1 cuts of which 0 were active after adding rounds of cuts (0.029 seconds)
FlowCover was tried 100 times and created 0 cuts of which 0 were active after adding rounds of cuts (0.100 seconds)
TwoMirCuts was tried 153 times and created 92 cuts of which 0 were active after adding rounds of cuts (0.015 seconds)
ZeroHalf was tried 1 times and created 0 cuts of which 0 were active after adding rounds of cuts (0.000 seconds)

Result - Optimal solution found

Objective value:                55816163.66384161
Enumerated nodes:               50
Total iterations:               2122
Time (CPU seconds):             0.76
Time (Wallclock seconds):       0.79

Option for printingOptions changed from normal to all
Total time (CPU seconds):       0.76   (Wallclock seconds):       0.79

